projet1/Data/infeasible_iis.txt
Variables in IIS (nonzero indicating membership):

Constraints in IIS:
CONSTR flow_8_kidney
